* Signature: 0xb7e902ce83870dc2
NAME lp_typeD_164
OBJSENSE MAX
ROWS
 N  OBJ
 L  c0      
 L  c1      
 L  c2      
 G  c3      
 G  c4      
 G  c5      
 G  c6      
 L  c_key_upper
 G  c_key_lower
 G  _chain_constr_1
 G  _chain_constr_2
 G  _chain_constr_3
 G  _chain_constr_4
 G  _chain_cycle
COLUMNS
    x0        OBJ       1.4149186928784176e+00
    x0        c0        1.9195878383682348e+00
    x0        c1        7.2363278923256613e-01
    x0        c2        1.0126157043528414e+00
    x0        c3        1.2587454496551238e+00
    x0        c4        1.2953401283925374e+00
    x0        c5        1.0105670984205937e+00
    x0        c6        1.6719264220411809e+00
    x0        c_key_upper  1.8925376133693570e+00
    x0        c_key_lower  1.8925376133693570e+00
    x1        OBJ       8.3230968365243685e-01
    x1        c0        7.6005838565909511e-01
    x1        c1        5.8354367498742654e-01
    x1        c2        1.1064419491195479e+00
    x1        c3        1.7265792781183456e+00
    x1        c4        1.1256379296373713e+00
    x1        c5        1.1543487351513093e+00
    x1        c6        1.5450710466365858e+00
    x1        c_key_upper  1.7755140008594048e+00
    x1        c_key_lower  1.7755140008594048e+00
    x2        OBJ       5.0810156849613075e-01
    x2        c0        1.6120505737207893e+00
    x2        c1        1.9131897032109577e+00
    x2        c2        1.0510335754835936e+00
    x2        c3        1.8044127861142467e+00
    x2        c4        1.3196240587323309e+00
    x2        c5        1.0384818612134081e+00
    x2        c6        1.3160689273180879e+00
    x2        c_key_upper  1.1211167974377472e+00
    x2        c_key_lower  1.1211167974377472e+00
    x3        OBJ       1.0997425480159213e+00
    x3        c0        0.732603644146006
    x3        c1        8.2123669046042180e-01
    x3        c2        1.0270864982968750e+00
    x3        c3        1.2045806609618164e+00
    x3        c4        5.7140663817115733e-01
    x3        c5        9.7541584889406052e-01
    x3        c6        5.0762038124121411e-01
    x3        c_key_upper  1.7794818172246565e+00
    x3        c_key_lower  1.7794818172246565e+00
    x4        OBJ       6.8112975556933730e-01
    x4        c0        1.7516361901996764e+00
    x4        c1        6.7615498023341025e-01
    x4        c2        1.7113691313706494e+00
    x4        c3        1.9592012214019128e+00
    x4        c4        6.7018371196440130e-01
    x4        c5        1.7986983817929325e+00
    x4        c6        1.2969083674103290e+00
    x4        c_key_upper  1.7490146338240367e+00
    x4        c_key_lower  1.7490146338240367e+00
    _chain_var_0  _chain_constr_1  -1
    _chain_var_0  _chain_cycle  1
    _chain_var_1  _chain_constr_1  1
    _chain_var_1  _chain_constr_2  -1
    _chain_var_2  _chain_constr_2  1
    _chain_var_2  _chain_constr_3  -1
    _chain_var_3  _chain_constr_3  1
    _chain_var_3  _chain_constr_4  -1
    _chain_var_4  _chain_constr_4  1
    _chain_var_4  _chain_cycle  -1
RHS
    RHS1      c0        3.5296918985886492e+01
    RHS1      c1        2.4746796914161013e+01
    RHS1      c2        2.7253631148501587e+01
    RHS1      c3        9.9754049708253874e+00
    RHS1      c4        6.7351517953029756e+00
    RHS1      c5        1.0547235085385143e+01
    RHS1      c6        7.5493243920028164e+00
    RHS1      c_key_upper  4.1588324313576010e+01
    RHS1      c_key_lower  2.0794162156788005e+01
    RHS1      _chain_constr_1  10
    RHS1      _chain_constr_2  10
    RHS1      _chain_constr_3  10
    RHS1      _chain_constr_4  10
    RHS1      _chain_cycle  10
BOUNDS
 UP BND1      x0        10
 UP BND1      x1        10
 UP BND1      x2        10
 UP BND1      x3        10
 UP BND1      x4        10
 UP BND1      _chain_var_0  100
 UP BND1      _chain_var_1  100
 UP BND1      _chain_var_2  100
 UP BND1      _chain_var_3  100
 UP BND1      _chain_var_4  100
ENDATA
